db/data/1640829626298452761153021917689225836.z3.out
sat
-------------------
246.853323058
